NAME: instance_2544
TYPE: TSP
DIMENSION: 20
EDGE_WEIGHT_TYPE: EUC_2D
NODE_COORD_SECTION
0 42.17 45.24
1 38.44 41.46
2 25.64 92.23
3 46.53 69.24
4 17.26 38.10
5 95.57 68.19
6 50.09 16.98
7 54.76 78.76
8 81.83 79.18
9 68.63 9.50
10 21.87 63.83
11 4.87 10.75
12 39.27 21.46
13 83.12 28.55
14 6.64 52.97
15 95.39 37.35
16 62.74 5.86
17 27.59 20.15
18 89.20 10.18
19 82.20 11.09
EOF
